start=1;

limit = 6;

n = 30;

m=[|-1,-1,-1,3,-1,5,13,-1,-1,-1,18,-1,-1,0,6,18,11,-1,-1,-1,-1,1,4,17,18,3,12,-1,10,-1,
|-1,-1,9,-1,-1,-1,-1,-1,-1,5,-1,-1,14,13,3,2,20,-1,-1,3,-1,-1,-1,2,7,0,-1,-1,17,17,
|-1,-1,-1,12,-1,-1,13,14,-1,-1,4,18,-1,16,-1,8,-1,-1,5,0,-1,13,0,0,2,-1,-1,4,3,-1,
|3,9,-1,-1,-1,17,-1,-1,3,-1,11,-1,-1,-1,20,11,-1,3,-1,16,0,-1,9,-1,-1,-1,-1,-1,6,-1,
|-1,12,-1,-1,-1,0,11,-1,6,-1,9,18,-1,9,-1,-1,-1,3,17,14,18,3,-1,-1,-1,-1,13,4,5,-1,
|20,6,13,9,-1,-1,-1,-1,14,-1,-1,15,18,-1,5,8,2,-1,12,-1,-1,13,1,-1,16,-1,-1,-1,-1,15,
|-1,10,15,-1,-1,-1,-1,-1,5,-1,-1,4,19,-1,8,5,-1,-1,3,5,-1,-1,-1,-1,10,18,-1,-1,16,3,
|9,-1,-1,-1,17,-1,-1,-1,19,-1,0,-1,18,-1,7,6,-1,-1,18,-1,-1,13,-1,-1,17,-1,15,-1,20,-1,
|-1,13,2,0,-1,-1,2,15,-1,-1,-1,14,7,-1,-1,-1,-1,-1,4,17,7,-1,20,19,-1,14,-1,0,8,17,
|6,3,-1,-1,-1,-1,11,-1,-1,-1,-1,11,-1,18,2,20,10,-1,17,14,-1,5,17,9,7,-1,-1,-1,13,-1,
|-1,14,5,-1,-1,19,-1,13,9,-1,-1,-1,0,-1,16,10,-1,-1,17,14,7,15,4,15,5,16,-1,12,-1,15,
|14,4,-1,-1,17,-1,2,-1,19,-1,15,-1,-1,11,16,10,-1,-1,10,-1,19,-1,-1,15,-1,18,-1,18,15,2,
|-1,14,-1,15,19,1,-1,-1,-1,12,2,-1,-1,-1,12,-1,9,-1,18,20,1,-1,-1,14,-1,-1,7,-1,7,-1,
|3,5,6,-1,6,2,-1,-1,2,7,-1,-1,-1,-1,5,9,-1,-1,-1,-1,20,3,5,11,-1,3,12,-1,-1,6,
|13,7,-1,-1,0,-1,8,6,15,-1,12,17,-1,6,-1,-1,-1,3,6,-1,5,13,6,6,-1,15,16,-1,11,11,
|-1,-1,5,-1,18,18,-1,10,6,-1,6,8,-1,-1,-1,-1,1,18,-1,6,-1,-1,-1,8,19,-1,-1,18,16,-1,
|4,19,-1,-1,20,2,-1,-1,-1,-1,18,-1,11,1,9,-1,-1,-1,18,-1,12,10,8,19,-1,-1,4,-1,-1,-1,
|2,-1,-1,-1,2,0,-1,-1,-1,18,6,-1,-1,-1,-1,-1,-1,-1,-1,18,8,9,2,-1,1,5,-1,18,-1,-1,
|-1,12,3,10,-1,-1,-1,-1,-1,4,12,-1,7,-1,4,4,5,15,-1,-1,18,1,-1,15,-1,-1,3,-1,10,14,
|-1,-1,-1,6,5,-1,-1,-1,12,-1,20,-1,-1,1,20,8,5,16,-1,-1,7,-1,-1,-1,8,-1,11,-1,12,-1,
|16,20,-1,-1,-1,-1,17,5,13,0,19,-1,-1,-1,14,-1,1,-1,13,-1,-1,16,-1,5,-1,-1,-1,-1,-1,-1,
|-1,-1,11,-1,-1,-1,-1,1,0,-1,13,-1,-1,17,17,-1,-1,-1,7,-1,8,-1,-1,-1,8,-1,-1,-1,10,-1,
|-1,17,-1,0,11,-1,11,-1,-1,20,14,-1,-1,1,11,17,11,19,15,4,9,-1,-1,-1,9,6,4,1,17,-1,
|6,1,19,-1,4,1,-1,-1,15,-1,7,4,-1,2,-1,-1,-1,11,20,16,-1,13,-1,-1,-1,-1,-1,-1,2,-1,
|-1,7,-1,2,10,-1,-1,7,6,5,3,-1,6,-1,3,-1,-1,12,17,15,1,-1,-1,8,-1,11,12,-1,-1,8,
|-1,-1,-1,13,8,-1,-1,12,6,-1,5,20,6,-1,15,-1,-1,-1,17,4,-1,-1,5,-1,-1,-1,17,-1,10,-1,
|-1,0,-1,17,-1,15,-1,15,0,-1,-1,-1,-1,-1,-1,-1,-1,-1,8,5,-1,-1,-1,-1,20,-1,-1,-1,-1,-1,
|19,1,-1,-1,11,17,7,-1,2,-1,-1,-1,-1,-1,-1,-1,20,14,-1,7,-1,3,6,-1,-1,5,18,-1,-1,6,
|-1,0,-1,-1,0,1,11,-1,18,3,14,14,17,12,-1,-1,-1,-1,-1,14,-1,-1,15,-1,4,0,-1,-1,-1,-1,
|3,-1,7,4,19,-1,10,1,-1,10,-1,15,1,13,-1,-1,-1,-1,9,-1,6,-1,-1,3,3,18,-1,13,-1,-1,
|];